c SAT instance with 24 variables
c Contains multiple interconnected groups of constraints
c Generated by Claude and manually truncated
p cnf 24 13
1 2 3 0
-1 4 5 0
2 -4 6 0
-3 -5 -6 0
7 8 9 10 0
-7 11 12 0
-8 -11 13 0
-9 -12 -13 0
14 15 16 17 0
-14 18 19 0
-15 -18 20 0
-16 -19 -20 0
21 22 23 24 0
